1
150
62
1 2
2 2
3 1
4 2
6 2
7 1
9 2
10 2
11 1
12 2
13 1
15 4
16 2
19 2
20 2
23 2
25 2
26 1
29 1
30 3
33 2
34 1
36 1
37 1
38 2
40 1
42 2
43 2
44 2
47 1
49 1
50 1
53 4
54 2
57 1
58 1
63 1
64 1
65 1
66 1
67 1
68 1
69 2
70 1
72 2
75 1
76 1
78 1
79 2
80 2
81 2
82 1
84 2
85 2
86 1
87 3
88 2
89 1
91 1
94 2
96 1
98 2
